(set-info :status unsat) ; swine result
(set-logic ALL)
(declare-fun i1 () Int)
(declare-fun it579 () Int)
(declare-fun it580 () Int)
(declare-fun it15 () Int)
(declare-fun it14 () Int)
(declare-fun it581 () Int)
(declare-fun it582 () Int)
(declare-fun it13 () Int)
(declare-fun bt633 () Bool)
(declare-fun bt634 () Bool)
(declare-fun bt635 () Bool)
(declare-fun bt636 () Bool)
(declare-fun it17 () Int)
(declare-fun it16 () Int)
(declare-fun it18 () Int)
(declare-fun bt25 () Bool)
(declare-fun bt28 () Bool)
(declare-fun bt26 () Bool)
(declare-fun bt27 () Bool)
(declare-fun it588 () Int)
(declare-fun it589 () Int)
(declare-fun it590 () Int)
(declare-fun it591 () Int)
(declare-fun bt637 () Bool)
(declare-fun bt638 () Bool)
(declare-fun bt639 () Bool)
(declare-fun bt640 () Bool)
(declare-fun it356 () Int)
(declare-fun it665 () Int)
(declare-fun it666 () Int)
(declare-fun it667 () Int)
(declare-fun it668 () Int)
(declare-fun bt709 () Bool)
(declare-fun bt710 () Bool)
(declare-fun bt711 () Bool)
(declare-fun bt712 () Bool)
(declare-fun bt643 () Bool)
(declare-fun it594 () Int)
(declare-fun it593 () Int)
(declare-fun bt641 () Bool)
(declare-fun it592 () Int)
(declare-fun bt642 () Bool)
(declare-fun bt644 () Bool)
(declare-fun it672 () Int)
(declare-fun it673 () Int)
(declare-fun it674 () Int)
(declare-fun it675 () Int)
(declare-fun bt713 () Bool)
(declare-fun bt714 () Bool)
(declare-fun bt715 () Bool)
(declare-fun bt716 () Bool)
(declare-fun bt719 () Bool)
(declare-fun bt718 () Bool)
(declare-fun it678 () Int)
(declare-fun it677 () Int)
(declare-fun bt720 () Bool)
(declare-fun it676 () Int)
(declare-fun bt717 () Bool)
(declare-fun it680 () Int)
(declare-fun it681 () Int)
(declare-fun it682 () Int)
(declare-fun it683 () Int)
(declare-fun bt721 () Bool)
(declare-fun bt722 () Bool)
(declare-fun bt723 () Bool)
(declare-fun bt724 () Bool)
(declare-fun it685 () Int)
(declare-fun bt727 () Bool)
(declare-fun bt728 () Bool)
(declare-fun it686 () Int)
(declare-fun bt726 () Bool)
(declare-fun bt725 () Bool)
(declare-fun it684 () Int)
(declare-fun it687 () Int)
(declare-fun it688 () Int)
(declare-fun it689 () Int)
(declare-fun it690 () Int)
(declare-fun bt729 () Bool)
(declare-fun bt730 () Bool)
(declare-fun bt731 () Bool)
(declare-fun bt732 () Bool)
(declare-fun it692 () Int)
(declare-fun bt733 () Bool)
(declare-fun bt736 () Bool)
(declare-fun bt735 () Bool)
(declare-fun it693 () Int)
(declare-fun it691 () Int)
(declare-fun bt734 () Bool)
(declare-fun it696 () Int)
(declare-fun it697 () Int)
(declare-fun it698 () Int)
(declare-fun it699 () Int)
(declare-fun bt737 () Bool)
(declare-fun bt738 () Bool)
(declare-fun bt739 () Bool)
(declare-fun bt740 () Bool)
(declare-fun it155 () Int)
(assert (= (+ i1 (- 1)) 0))
(assert (= (+ it579 (- 2)) 0))
(assert (= (+ (* it15 (- 1)) it580) 0))
(assert (= (+ it581 (* it14 (- 1))) 0))
(assert (= (+ (* it13 (- 1)) it582) 0))
(assert (or (and false bt633) (not bt633)))
(assert (or (and false (not bt634)) bt634))
(assert (or (and false bt635) (not bt635)))
(assert (or (and false bt636) (not bt636)))
(assert (and bt27
     (not bt26)
     (not bt28)
     (not bt25)
     (= (+ it18 (- 1)) 0)
     (= (+ it579 (- 2)) 0)
     (= (+ (* it16 (- 1)) it582) 0)
     (not bt633)
     (= (+ it581 (* it17 (- 1))) 0)
     bt634
     (not bt635)
     (not bt636)))
(assert (= (+ it588 (- 2)) 0))
(assert (= (+ (* it18 (- 1)) it589) 0))
(assert (= (+ it590 (* it17 (- 1))) 0))
(assert (= (+ (* it16 (- 1)) it591) 0))
(assert (or (and bt27 bt637) (and (not bt27) (not bt637))))
(assert (or (and bt28 bt638) (and (not bt28) (not bt638))))
(assert (or (and (not bt26) (not bt639)) (and bt26 bt639)))
(assert (or (and (not bt25) (not bt640)) (and bt25 bt640)))
(assert (let ((a!1 (+ (* (+ 0 it589) (exp 3 (+ it356 (- 1))) (+ 0 (- 1)))
              (+ 0 it591))))
  (and (> a!1 (+ 0 0))
       (> (+ (* it589 (- 1)) it591) 0)
       (>= (+ (* it588 (- 1)) 2) 0)
       bt637
       (not bt638)
       (>= (* it590 (- 1)) 0)
       (>= (+ it588 (- 2)) 0)
       (not bt640)
       (not bt639)
       (>= (+ it356 (- 1)) 0))))
(assert (= (+ (* it588 (- 1)) it665) 0))
(assert (= (+ (* (+ 0 it589) (exp 3 it356) (+ 0 (- 1))) (+ 0 it666))
   (+ 0 0)))
(assert (= (+ (* it590 (- 1)) it667) 0))
(assert (= (+ it668 (* it591 (- 1))) 0))
(assert (or (and false (not bt709)) bt709))
(assert (or (and false bt710) (not bt710)))
(assert (or (and false bt711) (not bt711)))
(assert (or (and false bt712) (not bt712)))
(assert (and (not bt711)
     (not bt644)
     bt642
     (= (+ it665 (- 2)) 0)
     (= (+ (* it592 (- 1)) it666) 0)
     bt641
     (= (+ (* it593 (- 1)) it667) 0)
     (> (+ it668 (* it666 (- 1))) 0)
     bt709
     (= (+ it668 (* it594 (- 1))) 0)
     (not bt710)
     (not bt643)
     (not bt712)))
(assert (= (+ it672 (- 2)) 0))
(assert (= (+ (* it592 (- 1)) it673) 0))
(assert (= (+ (* it593 (- 1)) it674) 0))
(assert (= (+ it675 (* it594 (- 1))) 0))
(assert (or (and (not bt713) (not bt642)) (and bt642 bt713)))
(assert (or (and bt714 bt641) (and (not bt714) (not bt641))))
(assert (or (and (not bt715) (not bt643)) (and bt643 bt715)))
(assert (or (and (not bt644) (not bt716)) (and bt644 bt716)))
(assert (and (not bt716)
     (not bt717)
     (not bt715)
     (= (+ it672 (- 2)) 0)
     (= (+ (* it676 (- 1)) it673) 0)
     (not bt720)
     (<= it674 0)
     (= (+ (* it677 (- 1)) it674) 0)
     (= (+ it675 (* it678 (- 1))) 0)
     bt714
     bt718
     bt719
     bt713))
(assert (= (+ it680 (- 2)) 0))
(assert (= (+ (* it676 (- 1)) it681) 0))
(assert (= (+ it682 (* it677 (- 1))) 0))
(assert (= (+ (* it678 (- 1)) it683) 0))
(assert (or (and (not bt718) (not bt721)) (and bt718 bt721)))
(assert (or (and (not bt717) (not bt722)) (and bt717 bt722)))
(assert (or (and bt723 bt719) (and (not bt719) (not bt723))))
(assert (or (and (not bt724) (not bt720)) (and bt720 bt724)))
(assert (and (= (+ (* it684 (- 1)) (* it681 3)) 0)
     (= (+ it680 (- 2)) 0)
     bt725
     bt723
     bt726
     (= (+ (* it686 (- 1)) it683) 0)
     (not bt728)
     (not bt722)
     bt727
     (= (+ it682 (* it685 (- 1))) 0)
     bt721))
(assert (= (+ it687 (- 2)) 0))
(assert (= (+ it688 (* it684 (- 1))) 0))
(assert (= (+ it689 (* it685 (- 1))) 0))
(assert (= (+ (* it686 (- 1)) it690) 0))
(assert (or (and bt726 bt729) (and (not bt729) (not bt726))))
(assert (or (and (not bt730) (not bt725)) (and bt725 bt730)))
(assert (or (and bt727 bt731) (and (not bt731) (not bt727))))
(assert (or (and bt728 bt732) (and (not bt732) (not bt728))))
(assert (and (not bt734)
     (= (+ (* it691 (- 1)) it688) 0)
     (= (+ it687 (- 2)) 0)
     (= (+ (* it693 (- 1)) it690) 0)
     bt735
     (not bt736)
     bt729
     bt730
     bt731
     bt733
     (= (+ (* it692 (- 1)) it689) 0)))
(assert (= (+ it696 (- 2)) 0))
(assert (= (+ (* it691 (- 1)) it697) 0))
(assert (= (+ it698 (* it692 (- 1))) 0))
(assert (= (+ it699 (* it693 (- 1))) 0))
(assert (or (and bt737 bt734) (and (not bt734) (not bt737))))
(assert (or (and bt733 bt738) (and (not bt738) (not bt733))))
(assert (or (and (not bt735) (not bt739)) (and bt735 bt739)))
(assert (or (and bt736 bt740) (and (not bt736) (not bt740))))
(assert (let ((a!1 (+ (* (exp 2 (+ it155 (- 1))) (+ 0 it697) (+ 0 (- 1)))
              (+ 0 it699))))
  (and (not bt739)
       bt737
       (> a!1 (+ 0 0))
       (not bt738)
       (>= (+ (* it696 (- 1)) 2) 0)
       (> (+ it699 (* it697 (- 1))) 0)
       (not bt740)
       (>= (+ it696 (- 2)) 0)
       (> it698 0)
       (>= (+ it155 (- 1)) 0))))
(check-sat)
